sat
(
  (define-fun C2_VM5 () Int
    0)
  (define-fun ProcProv2 () Int
    4)
  (define-fun C1_VM3 () Int
    0)
  (define-fun StorageProv3 () Int
    2000)
  (define-fun C2_VM1 () Int
    0)
  (define-fun C3_VM2 () Int
    0)
  (define-fun C4_VM3 () Int
    0)
  (define-fun C5_VM5 () Int
    0)
  (define-fun MemProv1 () Int
    3750)
  (define-fun PriceProv4 () Int
    379)
  (define-fun PriceProv1 () Int
    128)
  (define-fun C3_VM5 () Int
    0)
  (define-fun C4_VM1 () Int
    1)
  (define-fun C3_VM3 () Int
    0)
  (define-fun VM5Type () Int
    13)
  (define-fun StorageProv5 () Int
    2000)
  (define-fun VM1Type () Int
    17)
  (define-fun C5_VM2 () Int
    1)
  (define-fun C2_VM2 () Int
    0)
  (define-fun PriceProv2 () Int
    379)
  (define-fun MemProv3 () Int
    3750)
  (define-fun PriceProv5 () Int
    402)
  (define-fun C3_VM1 () Int
    0)
  (define-fun StorageProv4 () Int
    1000)
  (define-fun C4_VM5 () Int
    0)
  (define-fun C4_VM4 () Int
    0)
  (define-fun VM2Type () Int
    15)
  (define-fun ProcProv5 () Int
    4)
  (define-fun C1_VM4 () Int
    0)
  (define-fun C1_VM2 () Int
    0)
  (define-fun StorageProv2 () Int
    1000)
  (define-fun PriceProv3 () Int
    128)
  (define-fun MemProv5 () Int
    15000)
  (define-fun MemProv4 () Int
    30500)
  (define-fun C3_VM4 () Int
    1)
  (define-fun C5_VM3 () Int
    0)
  (define-fun ProcProv3 () Int
    2)
  (define-fun ProcProv4 () Int
    4)
  (define-fun StorageProv1 () Int
    2000)
  (define-fun C2_VM3 () Int
    1)
  (define-fun VM3Type () Int
    17)
  (define-fun MemProv2 () Int
    30500)
  (define-fun VM4Type () Int
    15)
  (define-fun C1_VM5 () Int
    1)
  (define-fun C2_VM4 () Int
    0)
  (define-fun C4_VM2 () Int
    0)
  (define-fun ProcProv1 () Int
    2)
  (define-fun C5_VM4 () Int
    0)
  (define-fun C5_VM1 () Int
    0)
  (define-fun C1_VM1 () Int
    0)
)
(objectives
 ( 17)
 ((+ 0 PriceProv1 PriceProv2 PriceProv3 PriceProv4 PriceProv5) 1416)
)
(:added-eqs                   54902
 :arith-eq-adapter            28307
 :arith-bound-propagations-lp 983
 :arith-conflicts             143
 :arith-diseq                 52590
 :arith-fixed-eqs             918
 :arith-lower                 55473
 :arith-make-feasible         15563
 :arith-max-columns           112
 :arith-max-rows              17
 :arith-upper                 61567
 :binary-propagations         188598
 :conflicts                   1416
 :decisions                   30643
 :del-clause                  30210
 :final-checks                70
 :max-memory                  40.36
 :maxsat-cores                11
 :memory                      40.18
 :minimized-lits              4866
 :mk-bool-var                 54452
 :mk-clause                   30850
 :mk-clause-binary            1810
 :num-allocs                  49862340
 :num-checks                  107
 :pb-conflicts                542
 :pb-predicates               184
 :pb-propagations             1211
 :pb-resolves                 542
 :propagations                274759
 :restarts                    2
 :rlimit-count                2462340
 :solve-eqs-elim-vars         2
 :solve-eqs-steps             16
 :time                        0.17
 :total-time                  0.17)
